NPROCS=0
This instance is clustered!
Gurobi Optimizer version 9.0.0 build v9.0.0rc2 (linux64)
Optimize a model with 20 rows, 101 columns and 200 nonzeros
Model fingerprint: 0x528eb477
Variable types: 1 continuous, 100 integer (100 binary)
Coefficient statistics:
  Matrix range     [1e+00, 1e+00]
  Objective range  [1e+00, 5e+01]
  Bounds range     [1e+00, 1e+00]
  RHS range        [1e+00, 1e+00]
Presolve removed 2 rows and 27 columns
Presolve time: 0.00s
Presolved: 18 rows, 74 columns, 146 nonzeros
Variable types: 1 continuous, 73 integer (73 binary)

Root relaxation: objective 1.284134e+02, 18 iterations, 0.00 seconds

    Nodes    |    Current Node    |     Objective Bounds      |     Work
 Expl Unexpl |  Obj  Depth IntInf | Incumbent    BestBd   Gap | It/Node Time

     0     0  128.41341    0   16          -  128.41341      -     -    0s
 done with super cut 0
 done with super cut 1
H    0     0                     274.2635004  128.41341  53.2%     -    0s
 done with super cut 2
     0     0  135.66145    0   16  274.26350  135.66145  50.5%     -    0s
 done with super cut 3
     0     0  135.66145    0   16  274.26350  135.66145  50.5%     -    0s
 done with super cut 4
 done with super cut 5
H    0     0                     180.6012869  135.66145  24.9%     -    0s
 done with super cut 6
H    0     0                     168.4502113  135.66145  19.5%     -    0s
     0     2  135.91899    0   20  168.45021  135.91899  19.3%     -    0s
 done with super cut 7
 done with super cut 8
 done with super cut 9
 done with super cut 10
*   44    29               5     159.6486318  148.25919  7.13%   3.7    0s

Cutting planes:
  Gomory: 1
  Lazy constraints: 30

Explored 92 nodes (341 simplex iterations) in 0.62 seconds
Thread count was 12 (of 12 available processors)

Solution count 4: 159.649 168.45 180.601 274.264 

Optimal solution found (tolerance 1.00e-04)
Best objective 1.596486317817e+02, best bound 1.596486317817e+02, gap 0.0000%

User-callback calls 293, time in user-callback 0.59 sec
/projects/academic/josewalt/caigao/RRARP_BD/BendersDecomp/ret/model_outs/n_8_m_9_algo_4.out
 =====>>>>> Solution is written to file in <../ret/model_outs> !!!
===>> All Done!
